c Reduced graph for GEOM20b generated by Cyril Grelier
p edge 20 32
e 1 8
e 1 9
e 1 15
e 1 16
e 1 19
e 1 20
e 2 6
e 2 8
e 2 10
e 2 13
e 3 15
e 3 16
e 3 17
e 3 18
e 4 11
e 4 19
e 5 14
e 5 17
e 6 10
e 7 18
e 8 15
e 8 19
e 9 14
e 9 20
e 11 19
e 12 18
e 14 16
e 14 17
e 14 20
e 15 16
e 15 18
e 16 17
